
Gurobi 8.1.1 (win64, Python) logging started 12/23/19 02:15:52

Academic license - for non-commercial use only

Gurobi 8.1.1 (win64, Python) logging started 12/23/19 02:20:56

Academic license - for non-commercial use only
<<<<<<< HEAD

Gurobi 8.1.1 (win64, Python) logging started 12/23/19 17:02:46

Academic license - for non-commercial use only

Gurobi 8.1.1 (win64, Python) logging started 12/23/19 19:54:27

Academic license - for non-commercial use only

Gurobi 8.1.1 (win64, Python) logging started 12/23/19 20:04:23

Academic license - for non-commercial use only

Gurobi 8.1.1 (win64, Python) logging started 12/24/19 12:58:16

Academic license - for non-commercial use only

Gurobi 8.1.1 (win64, Python) logging started 12/24/19 12:59:24

Academic license - for non-commercial use only

Gurobi 8.1.1 (win64, Python) logging started 12/24/19 13:05:44

Academic license - for non-commercial use only

Gurobi 8.1.1 (win64, Python) logging started 12/24/19 13:16:56

Academic license - for non-commercial use only

Gurobi 8.1.1 (win64, Python) logging started 12/24/19 13:17:40

Academic license - for non-commercial use only

Gurobi 8.1.1 (win64, Python) logging started 12/24/19 13:18:38

Academic license - for non-commercial use only

Gurobi 8.1.1 (win64, Python) logging started 12/24/19 13:19:34

Academic license - for non-commercial use only

Gurobi 8.1.1 (win64, Python) logging started 12/24/19 18:00:40

Academic license - for non-commercial use only

Gurobi 8.1.1 (win64, Python) logging started 12/25/19 16:27:22

Academic license - for non-commercial use only

Gurobi 8.1.1 (win64, Python) logging started 12/25/19 17:06:51

Academic license - for non-commercial use only

Gurobi 8.1.1 (win64, Python) logging started 12/25/19 17:13:41

Academic license - for non-commercial use only

Gurobi 8.1.1 (win64, Python) logging started 12/25/19 17:17:57

Academic license - for non-commercial use only
<<<<<<< HEAD

Gurobi 8.1.1 (win64, Python) logging started 12/25/19 18:52:00

Academic license - for non-commercial use only
=======
>>>>>>> parent of 6baaf7e... test

Gurobi 8.1.1 (win64, Python) logging started 12/25/19 18:57:15

Academic license - for non-commercial use only
=======
>>>>>>> parent of 1f3b6e0... test failed

Gurobi 8.1.1 (win64, Python) logging started 12/25/19 18:58:40

Academic license - for non-commercial use only

Gurobi 8.1.1 (win64, Python) logging started 12/25/19 21:28:46

Academic license - for non-commercial use only

Gurobi 8.1.1 (win64, Python) logging started 12/25/19 21:49:03

Academic license - for non-commercial use only

Gurobi 8.1.1 (win64, Python) logging started 12/26/19 11:46:09

Academic license - for non-commercial use only

Gurobi 8.1.1 (win64, Python) logging started 12/26/19 12:06:34

Academic license - for non-commercial use only

Gurobi 8.1.1 (win64, Python) logging started 12/26/19 12:30:30

Academic license - for non-commercial use only

Gurobi 8.1.1 (win64, Python) logging started 12/26/19 12:34:16

Academic license - for non-commercial use only

Gurobi 8.1.1 (win64, Python) logging started 12/26/19 12:40:26

Academic license - for non-commercial use only

Gurobi 8.1.1 (win64, Python) logging started 12/26/19 12:45:28

Academic license - for non-commercial use only

Gurobi 8.1.1 (win64, Python) logging started 12/26/19 12:49:32

Academic license - for non-commercial use only

Gurobi 8.1.1 (win64, Python) logging started 12/26/19 17:51:31

Academic license - for non-commercial use only

Gurobi 8.1.1 (win64, Python) logging started 12/26/19 17:54:52

Academic license - for non-commercial use only

Gurobi 8.1.1 (win64, Python) logging started 12/26/19 17:57:53

Academic license - for non-commercial use only

Gurobi 8.1.1 (win64, Python) logging started 12/26/19 18:02:04

Academic license - for non-commercial use only

Gurobi 8.1.1 (win64, Python) logging started 12/26/19 18:06:31

Academic license - for non-commercial use only

Gurobi 8.1.1 (win64, Python) logging started 12/26/19 18:08:08

Academic license - for non-commercial use only

Gurobi 8.1.1 (win64, Python) logging started 12/26/19 18:17:40

Academic license - for non-commercial use only

Gurobi 8.1.1 (win64, Python) logging started 12/26/19 18:22:57

Academic license - for non-commercial use only

Gurobi 8.1.1 (win64, Python) logging started 12/26/19 18:31:36

Academic license - for non-commercial use only

Gurobi 8.1.1 (win64, Python) logging started 12/26/19 18:34:05

Academic license - for non-commercial use only

Gurobi 8.1.1 (win64, Python) logging started 12/26/19 19:13:44

Academic license - for non-commercial use only

Gurobi 8.1.1 (win64, Python) logging started 12/26/19 19:27:47

Academic license - for non-commercial use only

Gurobi 8.1.1 (win64, Python) logging started 12/30/19 15:51:37

Academic license - for non-commercial use only

Gurobi 8.1.1 (win64, Python) logging started 12/30/19 16:23:01

Academic license - for non-commercial use only

Gurobi 8.1.1 (win64, Python) logging started 12/30/19 16:34:26

Academic license - for non-commercial use only

Gurobi 8.1.1 (win64, Python) logging started 12/31/19 13:19:46

Academic license - for non-commercial use only

Gurobi 8.1.1 (win64, Python) logging started 12/31/19 14:43:09

Academic license - for non-commercial use only


Gurobi 8.1.1 (win64, Python) logging started 12/31/19 17:30:38

Academic license - for non-commercial use only

Gurobi 8.1.1 (win64, Python) logging started 12/31/19 19:24:26

Academic license - for non-commercial use only

Gurobi 8.1.1 (mac64, Python) logging started Wed Jan  1 21:52:14 2020

Academic license - for non-commercial use only

Gurobi 8.1.1 (win64, Python) logging started 01/03/20 09:21:07

Academic license - for non-commercial use only

Gurobi 8.1.1 (win64, Python) logging started 01/03/20 09:54:40

Academic license - for non-commercial use only

Gurobi 8.1.1 (win64, Python) logging started 01/03/20 09:58:36

Academic license - for non-commercial use only

Gurobi 8.1.1 (win64, Python) logging started 01/03/20 10:00:16

Academic license - for non-commercial use only

Gurobi 8.1.1 (win64, Python) logging started 01/03/20 10:01:09

Academic license - for non-commercial use only

Gurobi 8.1.1 (win64, Python) logging started 01/03/20 13:56:19

Academic license - for non-commercial use only

Gurobi 8.1.1 (win64, Python) logging started 01/03/20 13:57:59

Academic license - for non-commercial use only

Gurobi 8.1.1 (win64, Python) logging started 01/03/20 14:00:11

Academic license - for non-commercial use only

Gurobi 8.1.1 (win64, Python) logging started 01/03/20 14:01:31

Academic license - for non-commercial use only

Gurobi 8.1.1 (win64, Python) logging started 01/03/20 14:06:36

Academic license - for non-commercial use only

Gurobi 8.1.1 (win64, Python) logging started 01/03/20 14:08:05

Academic license - for non-commercial use only

Gurobi 8.1.1 (win64, Python) logging started 01/03/20 14:08:47

Academic license - for non-commercial use only

Gurobi 8.1.1 (win64, Python) logging started 01/03/20 16:42:42

Academic license - for non-commercial use only

Gurobi 8.1.1 (win64, Python) logging started 01/03/20 16:43:16

Academic license - for non-commercial use only

Gurobi 8.1.1 (win64, Python) logging started 01/03/20 20:44:49

Academic license - for non-commercial use only

Gurobi 8.1.1 (win64, Python) logging started 01/05/20 19:43:34

Academic license - for non-commercial use only

Gurobi 8.1.1 (win64, Python) logging started 01/05/20 20:04:15

Academic license - for non-commercial use only

Gurobi 8.1.1 (win64, Python) logging started 01/05/20 20:33:02

Academic license - for non-commercial use only

Gurobi 8.1.1 (win64, Python) logging started 01/05/20 20:58:19

Academic license - for non-commercial use only

Gurobi 8.1.1 (win64, Python) logging started 01/06/20 03:59:18

Academic license - for non-commercial use only

Gurobi 8.1.1 (win64, Python) logging started 01/06/20 03:59:53

Academic license - for non-commercial use only

Gurobi 8.1.1 (win64, Python) logging started 01/06/20 04:00:28

Academic license - for non-commercial use only

Gurobi 8.1.1 (win64, Python) logging started 01/06/20 04:05:10

Academic license - for non-commercial use only

Gurobi 8.1.1 (win64, Python) logging started 01/06/20 04:17:43

Academic license - for non-commercial use only

Gurobi 8.1.1 (win64, Python) logging started 01/06/20 04:52:01

Academic license - for non-commercial use only

Gurobi 8.1.1 (win64, Python) logging started 01/06/20 04:52:14

Academic license - for non-commercial use only

Gurobi 8.1.1 (win64, Python) logging started 01/06/20 04:52:59

Academic license - for non-commercial use only

Gurobi 8.1.1 (win64, Python) logging started 01/06/20 04:53:39

Academic license - for non-commercial use only

Gurobi 8.1.1 (win64, Python) logging started 01/06/20 04:57:09

Academic license - for non-commercial use only

Gurobi 8.1.1 (win64, Python) logging started 01/06/20 04:57:41

Academic license - for non-commercial use only

Gurobi 8.1.1 (win64, Python) logging started 01/06/20 05:00:29

Academic license - for non-commercial use only

Gurobi 8.1.1 (win64, Python) logging started 01/06/20 05:00:37

Academic license - for non-commercial use only

Gurobi 8.1.1 (win64, Python) logging started 01/06/20 05:01:58

Academic license - for non-commercial use only

Gurobi 8.1.1 (win64, Python) logging started 01/06/20 05:04:54

Academic license - for non-commercial use only

Gurobi 8.1.1 (win64, Python) logging started 01/06/20 16:53:02

Academic license - for non-commercial use only

Gurobi 8.1.1 (win64, Python) logging started 01/06/20 17:01:57

Academic license - for non-commercial use only

Gurobi 8.1.1 (win64, Python) logging started 01/07/20 11:43:10

Academic license - for non-commercial use only

Gurobi 8.1.1 (win64, Python) logging started 01/07/20 11:43:32

Academic license - for non-commercial use only

Gurobi 8.1.1 (win64, Python) logging started 01/07/20 11:46:13

Academic license - for non-commercial use only

Gurobi 8.1.1 (win64, Python) logging started 01/07/20 11:46:43

Academic license - for non-commercial use only

Gurobi 8.1.1 (win64, Python) logging started 01/07/20 11:52:39

Academic license - for non-commercial use only

Gurobi 8.1.1 (win64, Python) logging started 01/07/20 11:56:11

Academic license - for non-commercial use only

Gurobi 8.1.1 (win64, Python) logging started 01/07/20 11:58:05

Academic license - for non-commercial use only

Gurobi 8.1.1 (win64, Python) logging started 01/07/20 12:00:56

Academic license - for non-commercial use only

Gurobi 8.1.1 (win64, Python) logging started 01/07/20 12:04:15

Academic license - for non-commercial use only

Gurobi 8.1.1 (win64, Python) logging started 01/07/20 12:09:19

Academic license - for non-commercial use only

Gurobi 8.1.1 (win64, Python) logging started 01/07/20 12:12:26

Academic license - for non-commercial use only

Gurobi 8.1.1 (win64, Python) logging started 01/07/20 12:16:35

Academic license - for non-commercial use only

Gurobi 8.1.1 (win64, Python) logging started 01/07/20 12:20:05

Academic license - for non-commercial use only

Gurobi 8.1.1 (win64, Python) logging started 01/07/20 12:21:48

Academic license - for non-commercial use only

Gurobi 8.1.1 (win64, Python) logging started 01/07/20 12:28:45

Academic license - for non-commercial use only

Gurobi 8.1.1 (win64, Python) logging started 01/07/20 13:41:18

Academic license - for non-commercial use only

Gurobi 8.1.1 (win64, Python) logging started 01/07/20 17:47:54

Academic license - for non-commercial use only
